pair_coeff      33 37 0.154919 3.24019863787641 0.154919 3.24019863787641
pair_coeff      61 62 0.083875 3.32394311738161 0.083875 3.32394311738161
pair_coeff      63 66 3 1.6 3 1.6
pair_coeff      64 64 0.1000 4.400 0.10000 4.400                          # Cl - Cl

pair_coeff 67 72 0.231169569460007 1.395614188408512 0.231169569460007 1.395614188408512     # OCe  - HTH
pair_coeff 66 70 0.725949812098155 1.291958737807227 0.725949812098155 1.291958737807227     # OW  - HCE
pair_coeff 68 72 0.125249196861202 3.007417574778008 0.125249196861202 3.007417574778008     # OCe  - OTH
pair_coeff 66 74 0.162053811644697 3.077715871759245 0.162053811644697 3.077715871759245     # OW  - OH1e

pair_coeff 67 71 0.231525911516256  1.368011441605048  0.231525911516256  1.368011441605048    # OCd  - HTH
pair_coeff 66 69 0.717000327821749 1.220184876930079 0.717000327821749 1.220184876930079    # OW  - HCD
pair_coeff 68 71 0.141950620429604  3.008796990015214  0.141950620429604  3.008796990015214    # OCd  - OTH
pair_coeff 66 73 0.150728469059708 3.082182192811322 0.150728469059708 3.082182192811322    # OW  - OH1d
